% File represents an instance of a Composite Structure problem to be solved by a CP framework
% Created on 2025-03-26 10:41:17.118
T = 58;
n = 9;
m = 12;
edges = [(1, 2),
(5, 4),
(8, 7),
(2, 3),
(5, 6),
(8, 9),
(1, 4),
(7, 4),
(5, 2),
(8, 5),
(6, 3),
(9, 6)];
counts = [|14, 10, 14, 14,
|12, 8, 12, 14,
|12, 8, 12, 12,
|14, 6, 14, 14,
|14, 8, 14, 16,
|14, 8, 14, 12,
|16, 6, 16, 14,
|16, 8, 16, 18,
|16, 8, 16, 14|];
